
Gurobi 11.0.3 (linux64) logging started Sat Nov 23 07:50:32 2024

Set parameter LogFile to value "/home/yihong/Coding/OR_SUC/SUC_results_bigM100000_thread4/case24_ieee_rts_theta0.5_epsilon0.05_gurobi_seed290000_num_gen100_N_WDR150_load_scaling_factor1_proposed_T24quadra_cost.txt"
Set parameter TimeLimit to value 3600
Gurobi Optimizer version 11.0.3 build v11.0.3rc0 (linux64 - "Ubuntu 20.04.6 LTS")

CPU model: AMD EPYC 7532 32-Core Processor, instruction set [SSE2|AVX|AVX2]
Thread count: 64 physical cores, 128 logical processors, using up to 4 threads

Optimize a model with 61352 rows, 29911 columns and 1720734 nonzeros
Model fingerprint: 0xcbdc4f7d
Model has 2400 quadratic constraints
Variable types: 27511 continuous, 2400 integer (2400 binary)
Coefficient statistics:
  Matrix range     [3e-04, 2e+03]
  QMatrix range    [2e-03, 8e-03]
  QLMatrix range   [2e-01, 6e+01]
  Objective range  [1e+00, 1e+00]
  Bounds range     [1e+00, 1e+00]
  RHS range        [1e+00, 9e+03]
Presolve removed 50535 rows and 12661 columns
Presolve time: 0.54s
Presolved: 10817 rows, 17250 columns, 65691 nonzeros
Presolved model has 2400 quadratic constraint(s)
Variable types: 14850 continuous, 2400 integer (2400 binary)

Root relaxation: objective 5.526471e+04, 8899 iterations, 0.29 seconds (0.44 work units)

    Nodes    |    Current Node    |     Objective Bounds      |     Work
 Expl Unexpl |  Obj  Depth IntInf | Incumbent    BestBd   Gap | It/Node Time

     0     0 55264.7062    0   24          - 55264.7062      -     -    0s
     0     0 363700.516    0  716          - 363700.516      -     -    1s
     0     0 379834.712    0  736          - 379834.712      -     -    1s
     0     0 640486.172    0  709          - 640486.172      -     -    1s
     0     0 640534.749    0  412          - 640534.749      -     -    2s
     0     0 640745.330    0  289          - 640745.330      -     -    2s
     0     0 640745.766    0  289          - 640745.766      -     -    2s
     0     0 640746.425    0  289          - 640746.425      -     -    2s
     0     0 640746.591    0  289          - 640746.591      -     -    2s
     0     2 640747.119    0  289          - 640747.119      -     -    3s
    59    76 641000.861   13  265          - 640750.868      -  65.5    5s
H  552   372                    640916.92875 640750.868  0.03%  22.1    7s
*  552   372             154    640916.92875 640750.868  0.03%  22.1    7s

Cutting planes:
  Gomory: 2
  Implied bound: 265
  MIR: 100
  Flow cover: 221
  RLT: 13

Explored 590 nodes (37242 simplex iterations) in 7.65 seconds (10.63 work units)
Thread count was 4 (of 128 available processors)

Solution count 2: 640917 640917 

Optimal solution found (tolerance 1.00e-03)
Warning: max constraint violation (4.0456e-07) exceeds tolerance
Best objective 6.409169287502e+05, best bound 6.407508678796e+05, gap 0.0259%
